BCC, Primitive cell
1.0
        2.4100000858         0.0000000000         0.0000000000
       -0.8033334131         2.2721698531         0.0000000000
       -0.8033334131        -1.1360850350         1.9677567518
   Mn
    1
Direct
     0.000000000         0.000000000         0.000000000
