Simple cubic
4.626
        1.0000000000         0.0000000000         0.0000000000
        0.0000000000         1.0000000000         0.0000000000
        0.0000000000         0.0000000000         1.0000000000
   Rb
    1
Direct
     0.000000000         0.000000000         0.000000000