Simple cubic
1.0
        3.2353916168         0.0000000000         0.0000000000
        0.0000000000         3.2353916168         0.0000000000
        0.0000000000         0.0000000000         3.2353916168
   Tb
    1
Direct
     0.000000000         0.000000000         0.000000000
