Simple cubic
1.0
        3.0815920830         0.0000000000         0.0000000000
        0.0000000000         3.0815920830         0.0000000000
        0.0000000000         0.0000000000         3.0815920830
   Nd
    1
Direct
     0.000000000         0.000000000         0.000000000
