&bands
  outdir  = './work/',
  prefix  = 'POSCAR',
  filband = 'POSCAR.bands',
  lsym    = .true.,
/
