FCC, primitive cell
5.032
        0.0000000000         0.5000000000         0.5000000000
        0.5000000000         0.0000000000         0.5000000000
        0.5000000000         0.5000000000         0.0000000000
   Bi
    1
Direct
     0.000000000         0.000000000         0.000000000