Simple cubic
1.0
        3.3251791000         0.0000000000         0.0000000000
        0.0000000000         3.3251791000         0.0000000000
        0.0000000000         0.0000000000         3.3251791000
   La
    1
Direct
     0.000000000         0.000000000         0.000000000
