BCC, Primitive cell
1.0
        3.4629399776         0.0000000000         0.0000000000
       -1.1543133994         3.2648910954         0.0000000000
       -1.1543133994        -1.6324457036         2.8274785392
   Bi
    1
Direct
     0.000000000         0.000000000         0.000000000
