Simple cubic
2.282
        1.0000000000         0.0000000000         0.0000000000
        0.0000000000         1.0000000000         0.0000000000
        0.0000000000         0.0000000000         1.0000000000
   Co
    1
Direct
     0.000000000         0.000000000         0.000000000