C4
1.0
        2.4672913551         0.0000000000         0.0000000000
       -1.2336456776         2.1367369921         0.0000000000
        0.0000000000         0.0000000000         7.8030729294
    C
    4
Cartesian
     0.000000000         0.000000000         1.950768232
     0.000000000         0.000000000         5.852304697
     0.000000000         1.424491371         1.950768232
     1.233645714         0.712245685         5.852304697
