HCP (HEX)
2.4672913551
        1.0000000000         0.0000000000         0.0000000000
       -0.5000000000         0.8660254038         0.0000000000
        0.0000000000         0.0000000000         3.1626070075
    C
    4
Direct
     0.000000000         0.000000000         0.250000000
     0.000000000         0.000000000         0.750000000
     0.333333333         0.666666666         0.250000000
     0.666666666         0.333333333         0.750000000
