FCC, primitive cell
5.086
        0.0000000000         0.5000000000         0.5000000000
        0.5000000000         0.0000000000         0.5000000000
        0.5000000000         0.5000000000         0.0000000000
   Hg
    1
Direct
     0.000000000         0.000000000         0.000000000