&CONTROL
  calculation  = 'scf' ,
  prefix  = 'POSCAR' ,
  outdir  = './work/' ,
  pseudo_dir = './../../../pseudo/psl100_PBE' ,
/
&SYSTEM
  ibrav = 0
  A =    2.85595
  nat = 1
  ntyp = 1
  nbnd = 32
  ecutwfc  =  29.0 ,
  ecutrho  = 121.0 ,
  occupations = 'smearing' ,
  degauss  = 0.02 ,
  smearing = 'mp',
  exxdiv_treatment = 'gygi-baldereschi' ,
  x_gamma_extrapolation = .true. ,
/
&ELECTRONS
  conv_thr = 7.3e-05 ,
  mixing_beta = 0.7 ,
/
CELL_PARAMETERS {alat}
  1.000000000000000   0.000000000000000   0.000000000000000 
  0.500000000000000   0.866025403784439   0.000000000000000 
  0.500000000000000   0.288675146230338   0.816496539789920 
ATOMIC_SPECIES
  Al   26.98100  Al.pbe-nl-kjpaw_psl.1.0.0.UPF 
ATOMIC_POSITIONS {crystal}
  Al   0.000000000000000   0.000000000000000   0.000000000000000 
K_POINTS automatic
  13 13 13  0 0 0

