&CONTROL
  calculation  = 'scf' ,
  prefix  = 'POSCAR' ,
  outdir  = './work/' ,
  pseudo_dir = './../../../pseudo/psl100_PBE' ,
/
&SYSTEM
  ibrav = 0
  A =    3.00785
  nat = 2
  ntyp = 1
  ecutwfc  =  65.0 ,
  ecutrho  = 532.0 ,
  occupations = 'smearing' ,
  degauss  = 0.02 ,
  smearing = 'mp',
  exxdiv_treatment = 'gygi-baldereschi' ,
  x_gamma_extrapolation = .true. ,
/
&ELECTRONS
  conv_thr = 1.5e-04 ,
  mixing_beta = 0.7 ,
/
CELL_PARAMETERS {alat}
  1.000000000000000   0.000000000000000   0.000000000000000 
 -0.500000000000000   0.866025403784439   0.000000000000000 
  0.000000000000000   0.000000000000000   1.975487774307594 
ATOMIC_SPECIES
  Cd  112.41100  Cd.pbe-spn-kjpaw_psl.1.0.0.UPF 
ATOMIC_POSITIONS {crystal}
  Cd   0.333333333333333   0.666666666666667   0.250000000000000 
  Cd   0.666666666666667   0.333333333333333   0.750000000000000 
K_POINTS automatic
  12 12 5  0 0 0

