Simple cubic
5.048
        1.0000000000         0.0000000000         0.0000000000
        0.0000000000         1.0000000000         0.0000000000
        0.0000000000         0.0000000000         1.0000000000
   Cs
    1
Direct
     0.000000000         0.000000000         0.000000000