BCC, Primitive cell
1.0
        3.7161149979         0.0000000000         0.0000000000
       -1.2387050781         3.5035867917         0.0000000000
       -1.2387050781        -1.7517935631         3.0341950694
   Na
    1
Direct
     0.000000000         0.000000000         0.000000000
