Co2
1.0
        2.4719998837         0.0000000000         0.0000000000
       -1.2359999418         2.1408146974         0.0000000000
        0.0000000000         0.0000000000         4.0211439133
   Co
    2
Cartesian
     0.000000000         1.427209841         1.005285978
     1.235999979         0.713604920         3.015857935
