FCC, primitive cell
5.29103400
        0.0000000000         0.5000000000         0.5000000000
        0.5000000000         0.0000000000         0.5000000000
        0.5000000000         0.5000000000         0.0000000000
   La
    1
Direct
     0.000000000         0.000000000         0.000000000