Simple cubic
1.0
        3.2266747952         0.0000000000         0.0000000000
        0.0000000000         3.2266747952         0.0000000000
        0.0000000000         0.0000000000         3.2266747952
   Ho
    1
Direct
     0.000000000         0.000000000         0.000000000
