Simple cubic
1.0
        3.2259349823         0.0000000000         0.0000000000
        0.0000000000         3.2259349823         0.0000000000
        0.0000000000         0.0000000000         3.2259349823
   Ho
    1
Direct
     0.000000000         0.000000000         0.000000000
