HCP
1.0
        3.7655901700         0.0000000000         0.0000000000
       -1.8827950850         3.2610967474         0.0000000000
        0.0000000000         0.0000000000         5.9481440000
   Pr
    2
Direct
     0.333333343         0.666666687         0.250000000
     0.666666687         0.333333343         0.750000000
