FCC, primitive cell
4.231
        0.0000000000         0.5000000000         0.5000000000
        0.5000000000         0.0000000000         0.5000000000
        0.5000000000         0.5000000000         0.0000000000
   Ga
    1
Direct
     0.000000000         0.000000000         0.000000000