BCC, Primitive cell
1.0
        2.5699999332         0.0000000000         0.0000000000
       -0.8566666989         2.4230191546         0.0000000000
       -0.8566666989        -1.2115096930         2.0983960750
   Cr
    1
Direct
     0.000000000         0.000000000         0.000000000
