FCC, primitive cell
3.795
        0.0000000000         0.5000000000         0.5000000000
        0.5000000000         0.0000000000         0.5000000000
        0.5000000000         0.5000000000         0.0000000000
    V
    1
Direct
     0.000000000         0.000000000         0.000000000