&CONTROL
  calculation  = 'scf' ,
  prefix  = 'POSCAR' ,
  outdir  = './work/' ,
  pseudo_dir = './../../../pseudo/psl100_PBE' ,
/
&SYSTEM
  ibrav = 0
  A =    4.07496
  nat = 2
  ntyp = 1
  ecutwfc  =  42.0 ,
  ecutrho  = 239.0 ,
  occupations = 'smearing' ,
  degauss  = 0.02 ,
  smearing = 'mp',
  exxdiv_treatment = 'gygi-baldereschi' ,
  x_gamma_extrapolation = .true. ,
/
&ELECTRONS
  conv_thr = 1.5e-04 ,
  mixing_beta = 0.7 ,
/
CELL_PARAMETERS {alat}
  1.000000000000000   0.000000000000000   0.000000000000000 
  0.500000000000000   0.866025403784439   0.000000000000000 
  0.500000000000000   0.288675146230338   0.816496539789920 
ATOMIC_SPECIES
  Ge   72.63000  Ge.pbe-dn-kjpaw_psl.1.0.0.UPF 
ATOMIC_POSITIONS {crystal}
  Ge   0.750000000000000   0.750000000000000   0.750000000000000 
  Ge   0.500000000000000   0.500000000000000   0.500000000000000 
K_POINTS automatic
  9 9 9  0 0 0

