FCC, primitive cell
6.66147600
        0.0000000000         0.5000000000         0.5000000000
        0.5000000000         0.0000000000         0.5000000000
        0.5000000000         0.5000000000         0.0000000000
   Xe
    1
Direct
     0.000000000         0.000000000         0.000000000