FCC, primitive cell
3.84389800
        0.0000000000         0.5000000000         0.5000000000
        0.5000000000         0.0000000000         0.5000000000
        0.5000000000         0.5000000000         0.0000000000
   Rh
    1
Direct
     0.000000000         0.000000000         0.000000000