Simple cubic
1.90
        1.0000000000         0.0000000000         0.0000000000
        0.0000000000         1.0000000000         0.0000000000
        0.0000000000         0.0000000000         1.0000000000
    B
    1
Direct
     0.000000000         0.000000000         0.000000000