Simple cubic
1.0
        3.2231042385         0.0000000000         0.0000000000
        0.0000000000         3.2231042385         0.0000000000
        0.0000000000         0.0000000000         3.2231042385
   Er
    1
Direct
     0.000000000         0.000000000         0.000000000
