Sm2
1.0
        3.6817102432         0.0000000000         0.0000000000
       -1.8408551216         3.1884546000         0.0000000000
        0.0000000000         0.0000000000         5.8500089645
   Sm
    2
Direct
     0.666666687         0.333333343         0.750000000
     0.333333343         0.666666687         0.250000000
