Fe2
1.0
        2.8630354404         0.0000000000         0.0000000000
        0.0000000000         2.8630354404         0.0000000000
        0.0000000000         0.0000000000         2.8630354404
   Fe
    2
Cartesian
     0.000000000         0.000000000         0.000000000
     1.431517720         1.431517720         1.431517720
