Simple cubic
2.968
        1.0000000000         0.0000000000         0.0000000000
        0.0000000000         1.0000000000         0.0000000000
        0.0000000000         0.0000000000         1.0000000000
   Sc
    1
Direct
     0.000000000         0.000000000         0.000000000