BCC, Primitive cell
4.34732
        1.0000000000         0.0000000000         0.0000000000
       -0.3333333333         0.9428090341         0.0000000000
       -0.3333333333        -0.4714045620         0.81649654844
   Kr
    1
Direct
     0.000000000         0.000000000         0.000000000
