FCC, primitive cell
5.50737000
        0.0000000000         0.5000000000         0.5000000000
        0.5000000000         0.0000000000         0.5000000000
        0.5000000000         0.5000000000         0.0000000000
   Ca
    1
Direct
     0.000000000         0.000000000         0.000000000