FCC, primitive cell
5.15569600
        0.0000000000         0.5000000000         0.5000000000
        0.5000000000         0.0000000000         0.5000000000
        0.5000000000         0.5000000000         0.0000000000
   Sm
    1
Direct
     0.000000000         0.000000000         0.000000000