FCC, primitive cell
4.023
        0.0000000000         0.5000000000         0.5000000000
        0.5000000000         0.0000000000         0.5000000000
        0.5000000000         0.5000000000         0.0000000000
    W
    1
Direct
     0.000000000         0.000000000         0.000000000