FCC, primitive cell
1.0
        3.4881210327         0.0000000000         0.0000000000
        1.7440605164         3.0208014258         0.0000000000
        1.7440605164         1.0069338086         2.8480388971
   Tm
    1
Direct
     0.000000000         0.000000000         0.000000000
