Simple cubic
3.924
        1.0000000000         0.0000000000         0.0000000000
        0.0000000000         1.0000000000         0.0000000000
        0.0000000000         0.0000000000         1.0000000000
   Ar
    1
Direct
     0.000000000         0.000000000         0.000000000