&CONTROL
  calculation  = 'scf' ,
  prefix  = 'POSCAR' ,
  outdir  = './work/' ,
  pseudo_dir = './../../../pseudo/psl100_PBE' ,
/
&SYSTEM
  ibrav = 0
  A =    3.52484
  nat = 2
  ntyp = 1
  nbnd = 56
  ecutwfc  =  42.0 ,
  ecutrho  = 333.0 ,
  occupations = 'smearing' ,
  degauss  = 0.02 ,
  smearing = 'mp',
  exxdiv_treatment = 'gygi-baldereschi' ,
  x_gamma_extrapolation = .true. ,
/
&ELECTRONS
  conv_thr = 1.5e-04 ,
  mixing_beta = 0.7 ,
/
CELL_PARAMETERS {alat}
  1.000000000000000   0.000000000000000   0.000000000000000 
 -0.500000000000000   0.866025403784439   0.000000000000000 
  0.000000000000000   0.000000000000000   1.552018560853009 
ATOMIC_SPECIES
  Lu  174.96680  Lu.pbe-spdn-kjpaw_psl.1.0.0.UPF 
ATOMIC_POSITIONS {crystal}
  Lu   0.333333333333333   0.666666666666667   0.250000000000000 
  Lu   0.666666666666667   0.333333333333333   0.750000000000000 
K_POINTS automatic
  10 10 6  0 0 0

