Simple cubic
1.0
        3.2416367531         0.0000000000         0.0000000000
        0.0000000000         3.2416367531         0.0000000000
        0.0000000000         0.0000000000         3.2416367531
   Gd
    1
Direct
     0.000000000         0.000000000         0.000000000
