Simple cubic
1.0
        3.2437860966         0.0000000000         0.0000000000
        0.0000000000         3.2437860966         0.0000000000
        0.0000000000         0.0000000000         3.2437860966
   Gd
    1
Direct
     0.000000000         0.000000000         0.000000000
