HCP
1.0
        3.6267036600         0.0000000000         0.0000000000
       -1.8133518300         3.1408175006         0.0000000000
        0.0000000000         0.0000000000         5.6163720000
   Dy
    2
Direct
     0.333333343         0.666666687         0.250000000
     0.666666687         0.333333343         0.750000000
