FCC, primitive cell
3.62126200
        0.0000000000         0.5000000000         0.5000000000
        0.5000000000         0.0000000000         0.5000000000
        0.5000000000         0.5000000000         0.0000000000
   Cu
    1
Direct
     0.000000000         0.000000000         0.000000000