&CONTROL
  calculation  = 'bands' ,
  prefix  = 'POSCAR' ,
  outdir  = './work/' ,
  pseudo_dir = './../../../pseudo/psl100_PBE' ,
/
&SYSTEM
  ibrav = 0
  A =    3.75000
  nat = 2
  ntyp = 1
  nbnd = 42
  ecutwfc  =  75.0 ,
  ecutrho  = 537.0 ,
  occupations = 'smearing' ,
  degauss  = 0.02 ,
  smearing = 'mp',
  exxdiv_treatment = 'gygi-baldereschi' ,
  x_gamma_extrapolation = .true. ,
/
&ELECTRONS
  conv_thr = 1.5e-04 ,
  mixing_beta = 0.7 ,
/
CELL_PARAMETERS {alat}
  1.000000000000000   0.000000000000000   0.000000000000000 
 -0.500000000000000   0.866025403784439   0.000000000000000 
  0.000000000000000   0.000000000000000   1.618666666666667 
ATOMIC_SPECIES
  La  138.90500  La.pbe-spfn-kjpaw_psl.1.0.0.UPF 
ATOMIC_POSITIONS {crystal}
  La   0.333333333333333   0.666666666666667   0.250000000000000 
  La   0.666666666666667   0.333333333333333   0.750000000000000 
K_POINTS {crystal_b}
7
 0.33333333      0.33333333      0.50000000   20 ! H
 0.00000000      0.00000000      0.50000000   20 ! A
 0.00000000      0.00000000      0.00000000   20 ! G
 0.33333333      0.33333333      0.00000000   20 ! K
 0.50000000      0.00000000      0.00000000   20 ! M
 0.00000000      0.00000000      0.00000000   20 ! G
 0.50000000      0.00000000      0.50000000    0 ! L