C2
1.0
        2.5269944668         0.0000000000         0.0000000000
        1.2634972334         2.1884414035         0.0000000000
        1.2634972334         0.7294804678         2.0632823422
    C
    2
Direct
     0.750000000         0.750000000         0.750000000
     0.500000000         0.500000000         0.500000000
