HCP
1.0
        3.6087537200         0.0000000000         0.0000000000
       -1.8043768600         3.1252723965         0.0000000000
        0.0000000000         0.0000000000         5.5775280000
   Ho
    2
Direct
     0.333333343         0.666666687         0.250000000
     0.666666687         0.333333343         0.750000000
