FCC, primitive cell
6.360
        0.0000000000         0.5000000000         0.5000000000
        0.5000000000         0.0000000000         0.5000000000
        0.5000000000         0.5000000000         0.0000000000
   Ba
    1
Direct
     0.000000000         0.000000000         0.000000000