Simple cubic
1.860
        1.0000000000         0.0000000000         0.0000000000
        0.0000000000         1.0000000000         0.0000000000
        0.0000000000         0.0000000000         1.0000000000
    N
    1
Direct
     0.000000000         0.000000000         0.000000000