&CONTROL
  calculation  = 'bands' ,
  prefix  = 'POSCAR' ,
  outdir  = './work/' ,
  pseudo_dir = './../../../pseudo/psl100_PBE' ,
/
&SYSTEM
  ibrav = 0
  A =    2.76200
  nat = 1
  ntyp = 1
  nbnd = 30
  ecutwfc  =  63.0 ,
  ecutrho  = 408.0 ,
  occupations = 'smearing' ,
  degauss  = 0.02 ,
  smearing = 'mp',
  exxdiv_treatment = 'gygi-baldereschi' ,
  x_gamma_extrapolation = .true. ,
/
&ELECTRONS
  conv_thr = 7.3e-05 ,
  mixing_beta = 0.7 ,
/
CELL_PARAMETERS {alat}
  1.000000000000000   0.000000000000000   0.000000000000000 
  0.000000000000000   1.000000000000000   0.000000000000000 
  0.000000000000000   0.000000000000000   1.000000000000000 
ATOMIC_SPECIES
  Ag  107.86820  Ag.pbe-spn-kjpaw_psl.1.0.0.UPF 
ATOMIC_POSITIONS {crystal}
  Ag   0.000000000000000   0.000000000000000   0.000000000000000 
K_POINTS {crystal_b}
7
 0.00000000      0.50000000      0.50000000   10 ! M
 0.50000000      0.50000000      0.50000000   20 ! R
 0.00000000      0.00000000      0.00000000   10 ! G
 0.50000000      0.00000000      0.00000000   10 ! X
 0.50000000      0.50000000      0.00000000   20 ! M
 0.00000000      0.00000000      0.00000000   20 ! G
 0.50000000      0.50000000      0.50000000    0 ! R