HCP
1.0
        2.9600000381         0.0000000000         0.0000000000
       -1.4800000191         2.5634352282         0.0000000000
        0.0000000000         0.0000000000         5.8899998665
   Cd
    2
Direct
     0.333333343         0.666666687         0.250000000
     0.666666687         0.333333343         0.750000000
