Simple cubic
4.259
        1.0000000000         0.0000000000         0.0000000000
        0.0000000000         1.0000000000         0.0000000000
        0.0000000000         0.0000000000         1.0000000000
   Kr
    1
Direct
     0.000000000         0.000000000         0.000000000