Simple cubic
1.0
        3.2333199978         0.0000000000         0.0000000000
        0.0000000000         3.2333199978         0.0000000000
        0.0000000000         0.0000000000         3.2333199978
   Dy
    1
Direct
     0.000000000         0.000000000         0.000000000
