FCC, primitive cell
1.0
        3.5239684582         0.0000000000         0.0000000000
        1.7619842291         3.0518462069         0.0000000000
        1.7619842291         1.0172820690         2.8773081974
   Ho
    1
Direct
     0.000000000         0.000000000         0.000000000

