FCC, primitive cell
3.992
        0.0000000000         0.5000000000         0.5000000000
        0.5000000000         0.0000000000         0.5000000000
        0.5000000000         0.5000000000         0.0000000000
   Mo
    1
Direct
     0.000000000         0.000000000         0.000000000