FCC, primitive cell
3.52105200
        0.0000000000         0.5000000000         0.5000000000
        0.5000000000         0.0000000000         0.5000000000
        0.5000000000         0.5000000000         0.0000000000
   Co
    1
Direct
     0.000000000         0.000000000         0.000000000