FCC primitive cell
4.17129
        0.0000000000         0.5000000000         0.5000000000
        0.5000000000         0.0000000000         0.5000000000
        0.5000000000         0.5000000000         0.0000000000
   Au
    1
Cartesian
     0.000000000         0.000000000         0.000000000