FCC, primitive cell
6.64626800
        0.0000000000         0.5000000000         0.5000000000
        0.5000000000         0.0000000000         0.5000000000
        0.5000000000         0.5000000000         0.0000000000
   Sn
    2
Direct
     0.250000000         0.250000000         0.250000000
     0.000000000         0.000000000         0.000000000
