BCC, Primitive cell
1.0
        4.5786700249         0.0000000000         0.0000000000
       -1.5262234388         4.3168114635         0.0000000000
       -1.5262234388        -2.1584059378         3.7384682718
    K
    1
Direct
     0.000000000         0.000000000         0.000000000
