Simple cubic
2.730
        1.0000000000         0.0000000000         0.0000000000
        0.0000000000         1.0000000000         0.0000000000
        0.0000000000         0.0000000000         1.0000000000
   Ta
    1
Direct
     0.000000000         0.000000000         0.000000000