FCC, primitive cell
5.16816200
        0.0000000000         0.5000000000         0.5000000000
        0.5000000000         0.0000000000         0.5000000000
        0.5000000000         0.5000000000         0.0000000000
   Pm
    1
Direct
     0.000000000         0.000000000         0.000000000