FCC, primitive cell
7.153
        0.0000000000         0.5000000000         0.5000000000
        0.5000000000         0.0000000000         0.5000000000
        0.5000000000         0.5000000000         0.0000000000
   Rb
    1
Direct
     0.000000000         0.000000000         0.000000000