Simple cubic
1.0
        3.2186605930         0.0000000000         0.0000000000
        0.0000000000         3.2186605930         0.0000000000
        0.0000000000         0.0000000000         3.2186605930
   Tm
    1
Direct
     0.000000000         0.000000000         0.000000000
