Simple cubic
1.0
        3.2127261162         0.0000000000         0.0000000000
        0.0000000000         3.2127261162         0.0000000000
        0.0000000000         0.0000000000         3.2127261162
   Yb
    1
Direct
     0.000000000         0.000000000         0.000000000
