BCC, Primitive cell
1.0
        4.8367500305         0.0000000000         0.0000000000
       -1.6122501128         4.5601316244         0.0000000000
       -1.6122501128        -2.2800660299         3.9491897056
   Rb
    1
Direct
     0.000000000         0.000000000         0.000000000
