Simple cubic
1.0
        3.5275421143         0.0000000000         0.0000000000
        0.0000000000         3.5275421143         0.0000000000
        0.0000000000         0.0000000000         3.5275421143
   Nd
    1
Direct
     0.000000000         0.000000000         0.000000000
