FCC, primitive cell
1.0
        3.5608892441         0.0000000000         0.0000000000
        1.7804446220         3.0838205454         0.0000000000
        1.7804446220         1.0279401818         2.9074538929
   Tb
    1
Direct
     0.000000000         0.000000000         0.000000000
