FCC, primitive cell
4.832
        0.0000000000         0.5000000000         0.5000000000
        0.5000000000         0.0000000000         0.5000000000
        0.5000000000         0.5000000000         0.0000000000
   Te
    1
Direct
     0.000000000         0.000000000         0.000000000