BCC, Primitive cell
1.0
        2.8771858215         0.0000000000         0.0000000000
       -0.9590620016         2.7126367853         0.0000000000
       -0.9590620016        -1.3563185221         2.3492122925
   Ta
    1
Direct
     0.000000000         0.000000000         0.000000000
