FCC, primitive cell
 3.425
        0.0000000000         0.5000000000         0.5000000000
        0.5000000000         0.0000000000         0.5000000000
        0.5000000000         0.5000000000         0.0000000000
    F
    1
Direct
     0.000000000         0.000000000         0.000000000