Simple cubic
3.279
        1.0000000000         0.0000000000         0.0000000000
        0.0000000000         1.0000000000         0.0000000000
        0.0000000000         0.0000000000         1.0000000000
   Bi
    1
Direct
     0.000000000         0.000000000         0.000000000