FCC, primitive cell
2.283
        0.0000000000         0.5000000000         0.5000000000
        0.5000000000         0.0000000000         0.5000000000
        0.5000000000         0.5000000000         0.0000000000
    H
    1
Direct
     0.000000000         0.000000000         0.000000000