FCC, primitive cell
2.866
        0.0000000000         0.5000000000         0.5000000000
        0.5000000000         0.0000000000         0.5000000000
        0.5000000000         0.5000000000         0.0000000000
    B
    1
Direct
     0.000000000         0.000000000         0.000000000