BCC, Primitive cell
1.0
        5.3364920616         0.0000000000         0.0000000000
       -1.7788308004         5.0312929260         0.0000000000
       -1.7788308004        -2.5156467032         4.3572273491
   Cs
    1
Direct
     0.000000000         0.000000000         0.000000000
