BCC, Primitive cell
1.0
        2.5799999237         0.0000000000         0.0000000000
       -0.8600000293         2.4324472360         0.0000000000
       -0.8600000293        -1.2162237341         2.1065610327
    V
    1
Direct
     0.000000000         0.000000000         0.000000000
