FCC, primitive cell
5.44925000
        0.0000000000         0.5000000000         0.5000000000
        0.5000000000         0.0000000000         0.5000000000
        0.5000000000         0.5000000000         0.0000000000
   Yb
    1
Direct
     0.000000000         0.000000000         0.000000000