Simple cubic
1.0
        3.2109549046         0.0000000000         0.0000000000
        0.0000000000         3.2109549046         0.0000000000
        0.0000000000         0.0000000000         3.2109549046
   Lu
    1
Direct
     0.000000000         0.000000000         0.000000000
