Simple cubic
1.0
        3.2123188972         0.0000000000         0.0000000000
        0.0000000000         3.2123188972         0.0000000000
        0.0000000000         0.0000000000         3.2123188972
   Lu
    1
Direct
     0.000000000         0.000000000         0.000000000
