Simple cubic
2.717
        1.0000000000         0.0000000000         0.0000000000
        0.0000000000         1.0000000000         0.0000000000
        0.0000000000         0.0000000000         1.0000000000
   Ge
    1
Direct
     0.000000000         0.000000000         0.000000000