BCC, Primitive cell
1.0
        1.5700999498         0.0000000000         0.0000000000
       -0.5233666833         1.4803044171         0.0000000000
       -0.5233666833        -0.7401522792         1.2819811898
    H
    1
Direct
     0.000000000         0.000000000         0.000000000
