FCC, primitive cell
3.95706600
        0.0000000000         0.5000000000         0.5000000000
        0.5000000000         0.0000000000         0.5000000000
        0.5000000000         0.5000000000         0.0000000000
   Pd
    1
Direct
     0.000000000         0.000000000         0.000000000