Simple cubic
3.266
        1.0000000000         0.0000000000         0.0000000000
        0.0000000000         1.0000000000         0.0000000000
        0.0000000000         0.0000000000         1.0000000000
    Y
    1
Direct
     0.000000000         0.000000000         0.000000000