Geometry = VaspFormat {
  <<< "POSCAR"
}

Hamiltonian = DFTB {
  Scc = Yes
  SccTolerance = 1e-5
  SlaterKosterFiles = Type2FileNames {
    Prefix = "./"
    Separator = "-"
    Suffix = ".skf"
  }
  MaxAngularMomentum {
    Ne = "p"
  }
  KPointsAndWeights = SupercellFolding {
    8 0 0
    0 8 0
    0 0 8
    0.5 0.5 0.5
  }
}

Analysis {
  #ProjectStates {
  #  Region {
  #    Atoms = Au
  #    ShellResolved = Yes
  #    Label = "dos_au"
  #  }
  #}
}

ParserOptions {
  ParserVersion = 12
}
