FCC, primitive cell
4.30382600
        0.0000000000         0.5000000000         0.5000000000
        0.5000000000         0.0000000000         0.5000000000
        0.5000000000         0.5000000000         0.0000000000
   Ne
    1
Direct
     0.000000000         0.000000000         0.000000000