Geometry = VaspFormat {
  <<< "POSCAR"
}

Hamiltonian = DFTB {
  Scc = Yes
  SccTolerance = 1e-5
  SlaterKosterFiles = Type2FileNames {
    Prefix = "./"
    Separator = "-"
    Suffix = ".skf"
  }
  MaxAngularMomentum {
    Be = "p"
  }
  KPointsAndWeights = SupercellFolding {
   16  0  0
    0 16  0
    0  0  9
    0.0 0.0 0.0
  }
  Filling = MethfesselPaxton {
    Order = 2
    Temperature [eV] = 0.02
  }
}

ParserOptions {
  ParserVersion = 12
}
