HCP
2.73293008
        1.0000000000         0.0000000000         0.0000000000
       -0.5000000000         0.8660254037         0.0000000000
        0.0000000000         0.0000000000         1.5784973906
   Ru
    2
Direct
     0.333333333         0.666666666         0.250000000
     0.666666666         0.333333333         0.750000000
