Simple cubic
1.0
        3.2626457214         0.0000000000         0.0000000000
        0.0000000000         3.2626457214         0.0000000000
        0.0000000000         0.0000000000         3.2626457214
   Sm
    1
Direct
     0.000000000         0.000000000         0.000000000
