HCP
1.0
        3.1730499268         0.0000000000         0.0000000000
       -1.5865249634         2.7479418440         0.0000000000
        0.0000000000         0.0000000000         5.6672949791
   Pa
    2
Direct
     0.666666687         0.333333343         0.750000000
     0.333333343         0.666666687         0.250000000
