BCC, Primitive cell
5.148
        1.0000000000         0.0000000000         0.0000000000
       -0.3333333333         0.9428090340         0.0000000000
       -0.3333333333        -0.4714045620         0.8164965484
   Ra
    1
Direct
     0.000000000         0.000000000         0.000000000
