Ce4
1.0
        3.3378520012         0.0000000000         0.0000000000
        1.6689261931         2.8906645160         0.0000000000
        1.6689261931         0.9635549127         2.7253446157
   Ce
    1
Direct
     0.000000000         0.000000000         0.000000000
