Simple cubic
2.275
        1.0000000000         0.0000000000         0.0000000000
        0.0000000000         1.0000000000         0.0000000000
        0.0000000000         0.0000000000         1.0000000000
   Mn
    1
Direct
     0.000000000         0.000000000         0.000000000