BCC, Primitive cell
1.0
        3.3838601112         0.0000000000         0.0000000000
       -1.1279534422         3.1903338829         0.0000000000
       -1.1279534422        -1.5951670938         2.7629101013
   Hg
    1
Direct
     0.000000000         0.000000000         0.000000000
