BCC, Primitive cell
1.0
        4.3563675880         0.0000000000         0.0000000000
       -1.4521226218         4.1072227178         0.0000000000
       -1.4521226218        -2.0536115550         3.5569590994
   Ba
    1
Direct
     0.000000000         0.000000000         0.000000000
