Simple cubic
2.188
        1.0000000000         0.0000000000         0.0000000000
        0.0000000000         1.0000000000         0.0000000000
        0.0000000000         0.0000000000         1.0000000000
    F
    1
Direct
     0.000000000         0.000000000         0.000000000