Si8
1.0
        3.8669745922         0.0000000000         0.0000000000
        1.9334872961         3.3488982326         0.0000000000
        1.9334872961         1.1162994109         3.1573715331
   Si
    2
Cartesian
     5.800461427         3.348897966         2.368028462
     3.866974362         2.232598689         1.578685672
