Simple cubic
1.0
        3.2501192093         0.0000000000         0.0000000000
        0.0000000000         3.2501192093         0.0000000000
        0.0000000000         0.0000000000         3.2501192093
   Eu
    1
Direct
     0.000000000         0.000000000         0.000000000
