HCP
1.0
        3.6403839900         0.0000000000         0.0000000000
       -1.8201919950         3.1526650140         0.0000000000
        0.0000000000         0.0000000000         5.6635850000
   Tb
    2
Direct
     0.333333343         0.666666687         0.250000000
     0.666666687         0.333333343         0.750000000
