Simple cubic
1.0
        3.2833468914         0.0000000000         0.0000000000
        0.0000000000         3.2833468914         0.0000000000
        0.0000000000         0.0000000000         3.2833468914
   Nd
    1
Direct
     0.000000000         0.000000000         0.000000000
