Pr1
1.0
        3.7253949642         0.0000000000         0.0000000000
        1.8626974821         3.2262866781         0.0000000000
        1.8626974821         1.0754288927         3.0417722509
   Pr
    1
Direct
     0.000000000         0.000000000         0.000000000
