BCC, Primitive cell
1.0
        2.6422429085         0.0000000000         0.0000000000
       -0.8807476922         2.4911304843         0.0000000000
       -0.8807476922        -1.2455653611         2.1573822149
    P
    1
Direct
     0.000000000         0.000000000         0.000000000
