FCC, primitive cell
6.49646200
        0.0000000000         0.5000000000         0.5000000000
        0.5000000000         0.0000000000         0.5000000000
        0.5000000000         0.5000000000         0.0000000000
   Kr
    1
Direct
     0.000000000         0.000000000         0.000000000