Simple cubic
1.0
        3.3738038540         0.0000000000         0.0000000000
        0.0000000000         3.3738038540         0.0000000000
        0.0000000000         0.0000000000         3.3738038540
   Ce
    1
Direct
     0.000000000         0.000000000         0.000000000
