&CONTROL
  calculation  = 'scf' ,
  prefix  = 'POSCAR' ,
  outdir  = './work/' ,
  pseudo_dir = './../../../pseudo/psl100_PBE' ,
/
&SYSTEM
  ibrav = 0
  A =    2.32600
  nat = 1
  ntyp = 1
  nbnd = 28
  ecutwfc  =  75.0 ,
  ecutrho  = 476.0 ,
  occupations = 'smearing' ,
  degauss  = 0.02 ,
  smearing = 'mp',
  exxdiv_treatment = 'gygi-baldereschi' ,
  x_gamma_extrapolation = .true. ,
/
&ELECTRONS
  conv_thr = 7.3e-05 ,
  mixing_beta = 0.7 ,
/
CELL_PARAMETERS {alat}
  1.000000000000000   0.000000000000000   0.000000000000000 
  0.000000000000000   1.000000000000000   0.000000000000000 
  0.000000000000000   0.000000000000000   1.000000000000000 
ATOMIC_SPECIES
  Ni   58.69340  Ni.pbe-spn-kjpaw_psl.1.0.0.UPF 
ATOMIC_POSITIONS {crystal}
  Ni   0.000000000000000   0.000000000000000   0.000000000000000 
K_POINTS automatic
  14 14 14  0 0 0

