FCC, primitive cell
1.0
        3.5067276955         0.0000000000         0.0000000000
        1.7533638477         3.0369152684         0.0000000000
        1.7533638477         1.0123050895         2.8632311736
   Er
    1
Direct
     0.000000000         0.000000000         0.000000000
