HCP
1.0
        3.7500000000         0.0000000000         0.0000000000
       -1.8750000000         3.2475952642         0.0000000000
        0.0000000000         0.0000000000         6.0700000000
   La
    2
Direct
     0.333333343         0.666666687         0.250000000
     0.666666687         0.333333343         0.750000000
