&CONTROL
  calculation  = 'scf' ,
  prefix  = 'POSCAR' ,
  outdir  = './work/' ,
  pseudo_dir = './../../../pseudo/psl100_PBE' ,
/
&SYSTEM
  ibrav = 0
  A =    3.19849
  nat = 2
  ntyp = 1
  ecutwfc  =  46.0 ,
  ecutrho  = 316.0 ,
  occupations = 'smearing' ,
  degauss  = 0.02 ,
  smearing = 'mp',
/
&ELECTRONS
  conv_thr = 1.5e-04 ,
  mixing_beta = 0.7 ,
/
CELL_PARAMETERS {alat}
  1.000000000000000   0.000000000000000   0.000000000000000 
 -0.500000000000000   0.866025403784439   0.000000000000000 
  0.000000000000000   0.000000000000000   1.586746041720989 
ATOMIC_SPECIES
  Hf  178.49000  Hf.pbe-spfn-kjpaw_psl.1.0.0.UPF 
ATOMIC_POSITIONS {crystal}
  Hf   0.333333333333333   0.666666666666667   0.250000000000000 
  Hf   0.666666666666667   0.333333333333333   0.750000000000000 
K_POINTS automatic
  11 11 6  0 0 0

