FCC, primitive cell
5.51651400
        0.0000000000         0.5000000000         0.5000000000
        0.5000000000         0.0000000000         0.5000000000
        0.5000000000         0.5000000000         0.0000000000
   Eu
    1
Direct
     0.000000000         0.000000000         0.000000000