FCC, primitive cell
3.874
        0.0000000000         0.5000000000         0.5000000000
        0.5000000000         0.0000000000         0.5000000000
        0.5000000000         0.5000000000         0.0000000000
   Tc
    1
Direct
     0.000000000         0.000000000         0.000000000