HCP
1.0
        3.5248378900         0.0000000000         0.0000000000
       -1.7624189400         3.0525991558         0.0000000000
        0.0000000000         0.0000000000         5.4706140000
   Lu
    2
Direct
     0.333333343         0.666666687         0.250000000
     0.666666687         0.333333343         0.750000000
