HCP
1.0
        3.5626459122         0.0000000000         0.0000000000
       -1.7813229561         3.0853418646         0.0000000000
        0.0000000000         0.0000000000         5.5131549835
   Tm
    2
Direct
     0.333332986         0.666666985         0.250000000
     0.666666985         0.333332986         0.750000000
