HCP
1.0
        3.5626455900         0.0000000000         0.0000000000
       -1.7813227900         3.0853415845         0.0000000000
        0.0000000000         0.0000000000         5.5131550000
   Tm
    2
Direct
     0.333333343         0.666666687         0.250000000
     0.666666687         0.333333343         0.750000000
