Nb1
1.0
        2.8756546974         0.0000000000         0.0000000000
       -0.9585516268         2.7111932276         0.0000000000
       -0.9585516268        -1.3555967432         2.3479621350
   Nb
    1
Cartesian
     0.000000000         0.000000000         0.000000000
