BCC, Primitive cell
2.4595568180
        1.0000000000         0.0000000000         0.0000000000
       -0.3333333333         0.9428090341         0.0000000000
       -0.3333333333        -0.4714045620         0.81649654844
   Fe
    1
Direct
     0.000000000         0.000000000         0.000000000
