BCC, Primitive cell
1.0
        2.7500000000         0.0000000000         0.0000000000
       -0.9166667250         2.5927248437         0.0000000000
       -0.9166667250        -1.2963625456         2.2453655082
    W
    1
Direct
     0.000000000         0.000000000         0.000000000
