FCC, primitive cell
1.0
        3.5438339710         0.0000000000         0.0000000000
        1.7719169855         3.0690502457         0.0000000000
        1.7719169855         1.0230167486         2.8935283207
   Dy
    1
Direct
     0.000000000         0.000000000         0.000000000
