FCC, primitive cell
6.02253000
        0.0000000000         0.5000000000         0.5000000000
        0.5000000000         0.0000000000         0.5000000000
        0.5000000000         0.5000000000         0.0000000000
   Sr
    1
Direct
     0.000000000         0.000000000         0.000000000