Simple cubic
1.0
        3.3147881031         0.0000000000         0.0000000000
        0.0000000000         3.3147881031         0.0000000000
        0.0000000000         0.0000000000         3.3147881031
   Pr
    1
Direct
     0.000000000         0.000000000         0.000000000
