FCC, primitive cell
1.0
        3.5660808086         0.0000000000         0.0000000000
        1.7830404043         3.0883165722         0.0000000000
        1.7830404043         1.0294388574         2.9116927876
   Gd
    1
Direct
     0.000000000         0.000000000         0.000000000