BCC, Primitive cell
2.165866
        1.0000000000         0.0000000000         0.0000000000
       -0.3333333333         0.9428090341         0.0000000000
       -0.3333333333        -0.4714045620         0.81649654844
   Be
    1
Direct
     0.000000000         0.000000000         0.000000000
