Simple cubic
4.695
        1.0000000000         0.0000000000         0.0000000000
        0.0000000000         1.0000000000         0.0000000000
        0.0000000000         0.0000000000         1.0000000000
   Xe
    1
Direct
     0.000000000         0.000000000         0.000000000