Simple cubic
2.762
        1.0000000000         0.0000000000         0.0000000000
        0.0000000000         1.0000000000         0.0000000000
        0.0000000000         0.0000000000         1.0000000000
   Ag
    1
Direct
     0.000000000         0.000000000         0.000000000