HCP
3.00784598
        1.0000000000         0.0000000000         0.0000000000
       -0.5000000000         0.8660254037         0.0000000000
        0.0000000000         0.0000000000         1.9754877900
   Cd
    2
Direct
     0.333333333         0.666666666         0.250000000
     0.666666666         0.333333333         0.750000000
