Eu2
1.0
        4.0506558418         0.0000000000         0.0000000000
       -2.0253279209         3.5079708610         0.0000000000
        0.0000000000         0.0000000000         6.5137858391
   Eu
    2
Direct
     0.666666687         0.333333343         0.750000000
     0.333333343         0.666666687         0.250000000
