HCP
1.0
        3.2610259056         0.0000000000         0.0000000000
       -1.6305129528         2.8241312767         0.0000000000
        0.0000000000         0.0000000000         5.7563247681
   Ce
    2
Direct
     0.333333343         0.666666687         0.250000000
     0.666666687         0.333333343         0.750000000
