HCP
2.72401429
        1.0000000000         0.0000000000         0.0000000000
       -0.5000000000         0.8660254037         0.0000000000
        0.0000000000         0.0000000000         3.2564190400
   Rh
    4
Direct
     0.000000000         0.000000000         0.500000000
     0.333333333         0.666666666         0.250000000
     0.000000000         0.000000000         0.000000000
     0.666666666         0.333333333         0.750000000
