HCP
3.20302773
        1.0000000000         0.0000000000         0.0000000000
       -0.5000000000         0.8660254037         0.0000000000
        0.0000000000         0.0000000000         1.6005765300
   Mg
    2
Direct
     0.666666666         0.333333333         0.750000000
     0.333333333         0.666666666         0.250000000

