Geometry = VaspFormat {
  <<< "POSCAR"
}

Hamiltonian = DFTB {
  Scc = Yes
  SccTolerance = 1e-5
  SlaterKosterFiles = Type2FileNames {
    Prefix = "./"
    Separator = "-"
    Suffix = ".skf"
  }
  MaxAngularMomentum {
    Yb = "d"
  }
  KPointsAndWeights = SupercellFolding {
    9 0 0
    0 9 0
    0 0 5
    0.0 0.0 0.0
  }
}

ParserOptions {
  ParserVersion = 12
}
