HCP
1.0
        3.8528718948         0.0000000000         0.0000000000
       -1.9264359474         3.3366849385         0.0000000000
        0.0000000000         0.0000000000         6.3770470619
   Yb
    2
Direct
     0.666666687         0.333333343         0.750000000
     0.333333343         0.666666687         0.250000000
