FCC, primitive cell
3.87572800
        0.0000000000         0.5000000000         0.5000000000
        0.5000000000         0.0000000000         0.5000000000
        0.5000000000         0.5000000000         0.0000000000
   Ir
    1
Direct
     0.000000000         0.000000000         0.000000000