FCC, primitive cell (diamond)
5.76286200
        0.0000000000         0.5000000000         0.5000000000
        0.5000000000         0.0000000000         0.5000000000
        0.5000000000         0.5000000000         0.0000000000
   Ge
    2
Direct
     0.750000000         0.750000000         0.750000000
     0.500000000         0.500000000         0.500000000
