HCP
1.0
        3.6139337200         0.0000000000         0.0000000000
       -1.8069668600         3.1297584090         0.0000000000
        0.0000000000         0.0000000000         5.7700740000
   Gd
    2
Direct
     0.333333343         0.666666687         0.250000000
     0.666666687         0.333333343         0.750000000
