HCP
1.0
        3.5873042600         0.0000000000         0.0000000000
       -1.7936521300         3.1066966192         0.0000000000
        0.0000000000         0.0000000000         5.5456830000
   Er
    2
Direct
     0.333333343         0.666666687         0.250000000
     0.666666687         0.333333343         0.750000000
