Simple cubic
1.0
        3.2651333809         0.0000000000         0.0000000000
        0.0000000000         3.2651333809         0.0000000000
        0.0000000000         0.0000000000         3.2651333809
   Sm
    1
Direct
     0.000000000         0.000000000         0.000000000
