Simple cubic
2.0
        1.0000000000         0.0000000000         0.0000000000
        0.0000000000         1.0000000000         0.0000000000
        0.0000000000         0.0000000000         1.0000000000
    O
    1
Cartesian
     0.000000000         0.000000000         0.000000000